c ind 33 32 31 30 29 28 27 26 25 24 23 22 21 20 19 18 17 16 15 14 13 12 11 10 9 8 7 6 5 4 3 2  0
c ind 190 189 188 187 186 185 184 183 182 181 180 179 178 177 176 175 174 173 172 171 170 169 168 167 166 165 164 163 162 161 160 159  0
c ind 96 95 94 93 92 91 90 89 88 87 86 85 84 83 82 81 80 79 78 77 76 75 74 73 72 71 70 69 68 67 66 65  0
p cnf 221 279
1 0
-64 0
-65 0
-66 0
-67 0
-68 0
-69 0
-70 0
-71 0
-72 0
-73 0
-74 0
-75 0
-76 0
-77 0
-78 0
-79 0
-80 0
-81 0
-82 0
-83 0
-84 0
-85 0
-86 0
-87 0
-88 0
-89 0
-90 0
-91 0
-92 0
-93 0
-94 0
-95 0
96 0
97 0
98 0
99 0
100 0
101 0
102 0
103 0
104 0
105 0
106 0
107 0
108 0
109 0
110 0
111 0
112 0
113 0
114 0
115 0
116 0
117 0
118 0
119 0
120 0
121 0
122 0
123 0
124 0
125 0
126 0
127 0
128 0
129 0
130 0
131 0
132 0
133 0
134 0
135 0
136 0
137 0
138 0
139 0
140 0
141 0
142 0
143 0
144 0
145 0
146 0
147 0
148 0
149 0
150 0
151 0
152 0
153 0
154 0
155 0
156 0
157 0
-158 0
-221 0
-2 -34 0
2 3 34 0
-3 -34 0
-4 -35 0
4 -34 35 0
-5 -36 0
5 -35 36 0
-6 -37 0
6 -36 37 0
-7 -38 0
7 -37 38 0
-8 -39 0
8 -38 39 0
-9 -40 0
9 -39 40 0
-10 -41 0
10 -40 41 0
-11 -42 0
11 -41 42 0
-12 -43 0
12 -42 43 0
-13 -44 0
13 -43 44 0
-14 -45 0
14 -44 45 0
-15 -46 0
15 -45 46 0
-16 -47 0
16 -46 47 0
-17 -48 0
17 -47 48 0
-18 -49 0
18 -48 49 0
-19 -50 0
19 -49 50 0
-20 -51 0
20 -50 51 0
-21 -52 0
21 -51 52 0
-22 -53 0
22 -52 53 0
-23 -54 0
23 -53 54 0
-24 -55 0
24 -54 55 0
-25 -56 0
25 -55 56 0
-26 -57 0
26 -56 57 0
-27 -58 0
27 -57 58 0
-28 -59 0
28 -58 59 0
-29 -60 0
29 -59 60 0
-30 -61 0
30 -60 61 0
-31 -62 0
31 -61 62 0
-32 -63 0
32 -62 63 0
33 -63 0
34 -35 0
35 -36 0
36 -37 0
37 -38 0
38 -39 0
39 -40 0
40 -41 0
41 -42 0
42 -43 0
43 -44 0
44 -45 0
45 -46 0
46 -47 0
47 -48 0
48 -49 0
49 -50 0
50 -51 0
51 -52 0
52 -53 0
53 -54 0
54 -55 0
55 -56 0
56 -57 0
57 -58 0
58 -59 0
59 -60 0
60 -61 0
61 -62 0
62 -63 0
-159 -191 0
159 160 191 0
-160 -191 0
-161 -192 0
161 -191 192 0
-162 -193 0
162 -192 193 0
-163 -194 0
163 -193 194 0
-164 -195 0
164 -194 195 0
-165 -196 0
165 -195 196 0
-166 -197 0
166 -196 197 0
-167 -198 0
167 -197 198 0
-168 -199 0
168 -198 199 0
-169 -200 0
169 -199 200 0
-170 -201 0
170 -200 201 0
-171 -202 0
171 -201 202 0
-172 -203 0
172 -202 203 0
-173 -204 0
173 -203 204 0
-174 -205 0
174 -204 205 0
-175 -206 0
175 -205 206 0
-176 -207 0
176 -206 207 0
-177 -208 0
177 -207 208 0
-178 -209 0
178 -208 209 0
-179 -210 0
179 -209 210 0
-180 -211 0
180 -210 211 0
-181 -212 0
181 -211 212 0
-182 -213 0
182 -212 213 0
-183 -214 0
183 -213 214 0
-184 -215 0
184 -214 215 0
-185 -216 0
185 -215 216 0
-186 -217 0
186 -216 217 0
-187 -218 0
187 -217 218 0
-188 -219 0
188 -218 219 0
-189 -220 0
189 -219 220 0
190 -220 0
191 -192 0
192 -193 0
193 -194 0
194 -195 0
195 -196 0
196 -197 0
197 -198 0
198 -199 0
199 -200 0
200 -201 0
201 -202 0
202 -203 0
203 -204 0
204 -205 0
205 -206 0
206 -207 0
207 -208 0
208 -209 0
209 -210 0
210 -211 0
211 -212 0
212 -213 0
213 -214 0
214 -215 0
215 -216 0
216 -217 0
217 -218 0
218 -219 0
219 -220 0
